NAME: fullgrid1024
TYPE: TSP
COMMENT: Generated with 5 levels by fullgrid
DIMENSION: 1024
EDGE_WEIGHT_TYPE: EUC_2D
NODE_COORD_SECTION
      1   156.25000000   156.25000000
      2   156.25000000   468.75000000
      3   156.25000000   781.25000000
      4   156.25000000  1093.75000000
      5   156.25000000  1406.25000000
      6   156.25000000  1718.75000000
      7   156.25000000  2031.25000000
      8   156.25000000  2343.75000000
      9   156.25000000  2656.25000000
     10   156.25000000  2968.75000000
     11   156.25000000  3281.25000000
     12   156.25000000  3593.75000000
     13   156.25000000  3906.25000000
     14   156.25000000  4218.75000000
     15   156.25000000  4531.25000000
     16   156.25000000  4843.75000000
     17   156.25000000  5156.25000000
     18   156.25000000  5468.75000000
     19   156.25000000  5781.25000000
     20   156.25000000  6093.75000000
     21   156.25000000  6406.25000000
     22   156.25000000  6718.75000000
     23   156.25000000  7031.25000000
     24   156.25000000  7343.75000000
     25   156.25000000  7656.25000000
     26   156.25000000  7968.75000000
     27   156.25000000  8281.25000000
     28   156.25000000  8593.75000000
     29   156.25000000  8906.25000000
     30   156.25000000  9218.75000000
     31   156.25000000  9531.25000000
     32   156.25000000  9843.75000000
     33   468.75000000   156.25000000
     34   468.75000000   468.75000000
     35   468.75000000   781.25000000
     36   468.75000000  1093.75000000
     37   468.75000000  1406.25000000
     38   468.75000000  1718.75000000
     39   468.75000000  2031.25000000
     40   468.75000000  2343.75000000
     41   468.75000000  2656.25000000
     42   468.75000000  2968.75000000
     43   468.75000000  3281.25000000
     44   468.75000000  3593.75000000
     45   468.75000000  3906.25000000
     46   468.75000000  4218.75000000
     47   468.75000000  4531.25000000
     48   468.75000000  4843.75000000
     49   468.75000000  5156.25000000
     50   468.75000000  5468.75000000
     51   468.75000000  5781.25000000
     52   468.75000000  6093.75000000
     53   468.75000000  6406.25000000
     54   468.75000000  6718.75000000
     55   468.75000000  7031.25000000
     56   468.75000000  7343.75000000
     57   468.75000000  7656.25000000
     58   468.75000000  7968.75000000
     59   468.75000000  8281.25000000
     60   468.75000000  8593.75000000
     61   468.75000000  8906.25000000
     62   468.75000000  9218.75000000
     63   468.75000000  9531.25000000
     64   468.75000000  9843.75000000
     65   781.25000000   156.25000000
     66   781.25000000   468.75000000
     67   781.25000000   781.25000000
     68   781.25000000  1093.75000000
     69   781.25000000  1406.25000000
     70   781.25000000  1718.75000000
     71   781.25000000  2031.25000000
     72   781.25000000  2343.75000000
     73   781.25000000  2656.25000000
     74   781.25000000  2968.75000000
     75   781.25000000  3281.25000000
     76   781.25000000  3593.75000000
     77   781.25000000  3906.25000000
     78   781.25000000  4218.75000000
     79   781.25000000  4531.25000000
     80   781.25000000  4843.75000000
     81   781.25000000  5156.25000000
     82   781.25000000  5468.75000000
     83   781.25000000  5781.25000000
     84   781.25000000  6093.75000000
     85   781.25000000  6406.25000000
     86   781.25000000  6718.75000000
     87   781.25000000  7031.25000000
     88   781.25000000  7343.75000000
     89   781.25000000  7656.25000000
     90   781.25000000  7968.75000000
     91   781.25000000  8281.25000000
     92   781.25000000  8593.75000000
     93   781.25000000  8906.25000000
     94   781.25000000  9218.75000000
     95   781.25000000  9531.25000000
     96   781.25000000  9843.75000000
     97  1093.75000000   156.25000000
     98  1093.75000000   468.75000000
     99  1093.75000000   781.25000000
    100  1093.75000000  1093.75000000
    101  1093.75000000  1406.25000000
    102  1093.75000000  1718.75000000
    103  1093.75000000  2031.25000000
    104  1093.75000000  2343.75000000
    105  1093.75000000  2656.25000000
    106  1093.75000000  2968.75000000
    107  1093.75000000  3281.25000000
    108  1093.75000000  3593.75000000
    109  1093.75000000  3906.25000000
    110  1093.75000000  4218.75000000
    111  1093.75000000  4531.25000000
    112  1093.75000000  4843.75000000
    113  1093.75000000  5156.25000000
    114  1093.75000000  5468.75000000
    115  1093.75000000  5781.25000000
    116  1093.75000000  6093.75000000
    117  1093.75000000  6406.25000000
    118  1093.75000000  6718.75000000
    119  1093.75000000  7031.25000000
    120  1093.75000000  7343.75000000
    121  1093.75000000  7656.25000000
    122  1093.75000000  7968.75000000
    123  1093.75000000  8281.25000000
    124  1093.75000000  8593.75000000
    125  1093.75000000  8906.25000000
    126  1093.75000000  9218.75000000
    127  1093.75000000  9531.25000000
    128  1093.75000000  9843.75000000
    129  1406.25000000   156.25000000
    130  1406.25000000   468.75000000
    131  1406.25000000   781.25000000
    132  1406.25000000  1093.75000000
    133  1406.25000000  1406.25000000
    134  1406.25000000  1718.75000000
    135  1406.25000000  2031.25000000
    136  1406.25000000  2343.75000000
    137  1406.25000000  2656.25000000
    138  1406.25000000  2968.75000000
    139  1406.25000000  3281.25000000
    140  1406.25000000  3593.75000000
    141  1406.25000000  3906.25000000
    142  1406.25000000  4218.75000000
    143  1406.25000000  4531.25000000
    144  1406.25000000  4843.75000000
    145  1406.25000000  5156.25000000
    146  1406.25000000  5468.75000000
    147  1406.25000000  5781.25000000
    148  1406.25000000  6093.75000000
    149  1406.25000000  6406.25000000
    150  1406.25000000  6718.75000000
    151  1406.25000000  7031.25000000
    152  1406.25000000  7343.75000000
    153  1406.25000000  7656.25000000
    154  1406.25000000  7968.75000000
    155  1406.25000000  8281.25000000
    156  1406.25000000  8593.75000000
    157  1406.25000000  8906.25000000
    158  1406.25000000  9218.75000000
    159  1406.25000000  9531.25000000
    160  1406.25000000  9843.75000000
    161  1718.75000000   156.25000000
    162  1718.75000000   468.75000000
    163  1718.75000000   781.25000000
    164  1718.75000000  1093.75000000
    165  1718.75000000  1406.25000000
    166  1718.75000000  1718.75000000
    167  1718.75000000  2031.25000000
    168  1718.75000000  2343.75000000
    169  1718.75000000  2656.25000000
    170  1718.75000000  2968.75000000
    171  1718.75000000  3281.25000000
    172  1718.75000000  3593.75000000
    173  1718.75000000  3906.25000000
    174  1718.75000000  4218.75000000
    175  1718.75000000  4531.25000000
    176  1718.75000000  4843.75000000
    177  1718.75000000  5156.25000000
    178  1718.75000000  5468.75000000
    179  1718.75000000  5781.25000000
    180  1718.75000000  6093.75000000
    181  1718.75000000  6406.25000000
    182  1718.75000000  6718.75000000
    183  1718.75000000  7031.25000000
    184  1718.75000000  7343.75000000
    185  1718.75000000  7656.25000000
    186  1718.75000000  7968.75000000
    187  1718.75000000  8281.25000000
    188  1718.75000000  8593.75000000
    189  1718.75000000  8906.25000000
    190  1718.75000000  9218.75000000
    191  1718.75000000  9531.25000000
    192  1718.75000000  9843.75000000
    193  2031.25000000   156.25000000
    194  2031.25000000   468.75000000
    195  2031.25000000   781.25000000
    196  2031.25000000  1093.75000000
    197  2031.25000000  1406.25000000
    198  2031.25000000  1718.75000000
    199  2031.25000000  2031.25000000
    200  2031.25000000  2343.75000000
    201  2031.25000000  2656.25000000
    202  2031.25000000  2968.75000000
    203  2031.25000000  3281.25000000
    204  2031.25000000  3593.75000000
    205  2031.25000000  3906.25000000
    206  2031.25000000  4218.75000000
    207  2031.25000000  4531.25000000
    208  2031.25000000  4843.75000000
    209  2031.25000000  5156.25000000
    210  2031.25000000  5468.75000000
    211  2031.25000000  5781.25000000
    212  2031.25000000  6093.75000000
    213  2031.25000000  6406.25000000
    214  2031.25000000  6718.75000000
    215  2031.25000000  7031.25000000
    216  2031.25000000  7343.75000000
    217  2031.25000000  7656.25000000
    218  2031.25000000  7968.75000000
    219  2031.25000000  8281.25000000
    220  2031.25000000  8593.75000000
    221  2031.25000000  8906.25000000
    222  2031.25000000  9218.75000000
    223  2031.25000000  9531.25000000
    224  2031.25000000  9843.75000000
    225  2343.75000000   156.25000000
    226  2343.75000000   468.75000000
    227  2343.75000000   781.25000000
    228  2343.75000000  1093.75000000
    229  2343.75000000  1406.25000000
    230  2343.75000000  1718.75000000
    231  2343.75000000  2031.25000000
    232  2343.75000000  2343.75000000
    233  2343.75000000  2656.25000000
    234  2343.75000000  2968.75000000
    235  2343.75000000  3281.25000000
    236  2343.75000000  3593.75000000
    237  2343.75000000  3906.25000000
    238  2343.75000000  4218.75000000
    239  2343.75000000  4531.25000000
    240  2343.75000000  4843.75000000
    241  2343.75000000  5156.25000000
    242  2343.75000000  5468.75000000
    243  2343.75000000  5781.25000000
    244  2343.75000000  6093.75000000
    245  2343.75000000  6406.25000000
    246  2343.75000000  6718.75000000
    247  2343.75000000  7031.25000000
    248  2343.75000000  7343.75000000
    249  2343.75000000  7656.25000000
    250  2343.75000000  7968.75000000
    251  2343.75000000  8281.25000000
    252  2343.75000000  8593.75000000
    253  2343.75000000  8906.25000000
    254  2343.75000000  9218.75000000
    255  2343.75000000  9531.25000000
    256  2343.75000000  9843.75000000
    257  2656.25000000   156.25000000
    258  2656.25000000   468.75000000
    259  2656.25000000   781.25000000
    260  2656.25000000  1093.75000000
    261  2656.25000000  1406.25000000
    262  2656.25000000  1718.75000000
    263  2656.25000000  2031.25000000
    264  2656.25000000  2343.75000000
    265  2656.25000000  2656.25000000
    266  2656.25000000  2968.75000000
    267  2656.25000000  3281.25000000
    268  2656.25000000  3593.75000000
    269  2656.25000000  3906.25000000
    270  2656.25000000  4218.75000000
    271  2656.25000000  4531.25000000
    272  2656.25000000  4843.75000000
    273  2656.25000000  5156.25000000
    274  2656.25000000  5468.75000000
    275  2656.25000000  5781.25000000
    276  2656.25000000  6093.75000000
    277  2656.25000000  6406.25000000
    278  2656.25000000  6718.75000000
    279  2656.25000000  7031.25000000
    280  2656.25000000  7343.75000000
    281  2656.25000000  7656.25000000
    282  2656.25000000  7968.75000000
    283  2656.25000000  8281.25000000
    284  2656.25000000  8593.75000000
    285  2656.25000000  8906.25000000
    286  2656.25000000  9218.75000000
    287  2656.25000000  9531.25000000
    288  2656.25000000  9843.75000000
    289  2968.75000000   156.25000000
    290  2968.75000000   468.75000000
    291  2968.75000000   781.25000000
    292  2968.75000000  1093.75000000
    293  2968.75000000  1406.25000000
    294  2968.75000000  1718.75000000
    295  2968.75000000  2031.25000000
    296  2968.75000000  2343.75000000
    297  2968.75000000  2656.25000000
    298  2968.75000000  2968.75000000
    299  2968.75000000  3281.25000000
    300  2968.75000000  3593.75000000
    301  2968.75000000  3906.25000000
    302  2968.75000000  4218.75000000
    303  2968.75000000  4531.25000000
    304  2968.75000000  4843.75000000
    305  2968.75000000  5156.25000000
    306  2968.75000000  5468.75000000
    307  2968.75000000  5781.25000000
    308  2968.75000000  6093.75000000
    309  2968.75000000  6406.25000000
    310  2968.75000000  6718.75000000
    311  2968.75000000  7031.25000000
    312  2968.75000000  7343.75000000
    313  2968.75000000  7656.25000000
    314  2968.75000000  7968.75000000
    315  2968.75000000  8281.25000000
    316  2968.75000000  8593.75000000
    317  2968.75000000  8906.25000000
    318  2968.75000000  9218.75000000
    319  2968.75000000  9531.25000000
    320  2968.75000000  9843.75000000
    321  3281.25000000   156.25000000
    322  3281.25000000   468.75000000
    323  3281.25000000   781.25000000
    324  3281.25000000  1093.75000000
    325  3281.25000000  1406.25000000
    326  3281.25000000  1718.75000000
    327  3281.25000000  2031.25000000
    328  3281.25000000  2343.75000000
    329  3281.25000000  2656.25000000
    330  3281.25000000  2968.75000000
    331  3281.25000000  3281.25000000
    332  3281.25000000  3593.75000000
    333  3281.25000000  3906.25000000
    334  3281.25000000  4218.75000000
    335  3281.25000000  4531.25000000
    336  3281.25000000  4843.75000000
    337  3281.25000000  5156.25000000
    338  3281.25000000  5468.75000000
    339  3281.25000000  5781.25000000
    340  3281.25000000  6093.75000000
    341  3281.25000000  6406.25000000
    342  3281.25000000  6718.75000000
    343  3281.25000000  7031.25000000
    344  3281.25000000  7343.75000000
    345  3281.25000000  7656.25000000
    346  3281.25000000  7968.75000000
    347  3281.25000000  8281.25000000
    348  3281.25000000  8593.75000000
    349  3281.25000000  8906.25000000
    350  3281.25000000  9218.75000000
    351  3281.25000000  9531.25000000
    352  3281.25000000  9843.75000000
    353  3593.75000000   156.25000000
    354  3593.75000000   468.75000000
    355  3593.75000000   781.25000000
    356  3593.75000000  1093.75000000
    357  3593.75000000  1406.25000000
    358  3593.75000000  1718.75000000
    359  3593.75000000  2031.25000000
    360  3593.75000000  2343.75000000
    361  3593.75000000  2656.25000000
    362  3593.75000000  2968.75000000
    363  3593.75000000  3281.25000000
    364  3593.75000000  3593.75000000
    365  3593.75000000  3906.25000000
    366  3593.75000000  4218.75000000
    367  3593.75000000  4531.25000000
    368  3593.75000000  4843.75000000
    369  3593.75000000  5156.25000000
    370  3593.75000000  5468.75000000
    371  3593.75000000  5781.25000000
    372  3593.75000000  6093.75000000
    373  3593.75000000  6406.25000000
    374  3593.75000000  6718.75000000
    375  3593.75000000  7031.25000000
    376  3593.75000000  7343.75000000
    377  3593.75000000  7656.25000000
    378  3593.75000000  7968.75000000
    379  3593.75000000  8281.25000000
    380  3593.75000000  8593.75000000
    381  3593.75000000  8906.25000000
    382  3593.75000000  9218.75000000
    383  3593.75000000  9531.25000000
    384  3593.75000000  9843.75000000
    385  3906.25000000   156.25000000
    386  3906.25000000   468.75000000
    387  3906.25000000   781.25000000
    388  3906.25000000  1093.75000000
    389  3906.25000000  1406.25000000
    390  3906.25000000  1718.75000000
    391  3906.25000000  2031.25000000
    392  3906.25000000  2343.75000000
    393  3906.25000000  2656.25000000
    394  3906.25000000  2968.75000000
    395  3906.25000000  3281.25000000
    396  3906.25000000  3593.75000000
    397  3906.25000000  3906.25000000
    398  3906.25000000  4218.75000000
    399  3906.25000000  4531.25000000
    400  3906.25000000  4843.75000000
    401  3906.25000000  5156.25000000
    402  3906.25000000  5468.75000000
    403  3906.25000000  5781.25000000
    404  3906.25000000  6093.75000000
    405  3906.25000000  6406.25000000
    406  3906.25000000  6718.75000000
    407  3906.25000000  7031.25000000
    408  3906.25000000  7343.75000000
    409  3906.25000000  7656.25000000
    410  3906.25000000  7968.75000000
    411  3906.25000000  8281.25000000
    412  3906.25000000  8593.75000000
    413  3906.25000000  8906.25000000
    414  3906.25000000  9218.75000000
    415  3906.25000000  9531.25000000
    416  3906.25000000  9843.75000000
    417  4218.75000000   156.25000000
    418  4218.75000000   468.75000000
    419  4218.75000000   781.25000000
    420  4218.75000000  1093.75000000
    421  4218.75000000  1406.25000000
    422  4218.75000000  1718.75000000
    423  4218.75000000  2031.25000000
    424  4218.75000000  2343.75000000
    425  4218.75000000  2656.25000000
    426  4218.75000000  2968.75000000
    427  4218.75000000  3281.25000000
    428  4218.75000000  3593.75000000
    429  4218.75000000  3906.25000000
    430  4218.75000000  4218.75000000
    431  4218.75000000  4531.25000000
    432  4218.75000000  4843.75000000
    433  4218.75000000  5156.25000000
    434  4218.75000000  5468.75000000
    435  4218.75000000  5781.25000000
    436  4218.75000000  6093.75000000
    437  4218.75000000  6406.25000000
    438  4218.75000000  6718.75000000
    439  4218.75000000  7031.25000000
    440  4218.75000000  7343.75000000
    441  4218.75000000  7656.25000000
    442  4218.75000000  7968.75000000
    443  4218.75000000  8281.25000000
    444  4218.75000000  8593.75000000
    445  4218.75000000  8906.25000000
    446  4218.75000000  9218.75000000
    447  4218.75000000  9531.25000000
    448  4218.75000000  9843.75000000
    449  4531.25000000   156.25000000
    450  4531.25000000   468.75000000
    451  4531.25000000   781.25000000
    452  4531.25000000  1093.75000000
    453  4531.25000000  1406.25000000
    454  4531.25000000  1718.75000000
    455  4531.25000000  2031.25000000
    456  4531.25000000  2343.75000000
    457  4531.25000000  2656.25000000
    458  4531.25000000  2968.75000000
    459  4531.25000000  3281.25000000
    460  4531.25000000  3593.75000000
    461  4531.25000000  3906.25000000
    462  4531.25000000  4218.75000000
    463  4531.25000000  4531.25000000
    464  4531.25000000  4843.75000000
    465  4531.25000000  5156.25000000
    466  4531.25000000  5468.75000000
    467  4531.25000000  5781.25000000
    468  4531.25000000  6093.75000000
    469  4531.25000000  6406.25000000
    470  4531.25000000  6718.75000000
    471  4531.25000000  7031.25000000
    472  4531.25000000  7343.75000000
    473  4531.25000000  7656.25000000
    474  4531.25000000  7968.75000000
    475  4531.25000000  8281.25000000
    476  4531.25000000  8593.75000000
    477  4531.25000000  8906.25000000
    478  4531.25000000  9218.75000000
    479  4531.25000000  9531.25000000
    480  4531.25000000  9843.75000000
    481  4843.75000000   156.25000000
    482  4843.75000000   468.75000000
    483  4843.75000000   781.25000000
    484  4843.75000000  1093.75000000
    485  4843.75000000  1406.25000000
    486  4843.75000000  1718.75000000
    487  4843.75000000  2031.25000000
    488  4843.75000000  2343.75000000
    489  4843.75000000  2656.25000000
    490  4843.75000000  2968.75000000
    491  4843.75000000  3281.25000000
    492  4843.75000000  3593.75000000
    493  4843.75000000  3906.25000000
    494  4843.75000000  4218.75000000
    495  4843.75000000  4531.25000000
    496  4843.75000000  4843.75000000
    497  4843.75000000  5156.25000000
    498  4843.75000000  5468.75000000
    499  4843.75000000  5781.25000000
    500  4843.75000000  6093.75000000
    501  4843.75000000  6406.25000000
    502  4843.75000000  6718.75000000
    503  4843.75000000  7031.25000000
    504  4843.75000000  7343.75000000
    505  4843.75000000  7656.25000000
    506  4843.75000000  7968.75000000
    507  4843.75000000  8281.25000000
    508  4843.75000000  8593.75000000
    509  4843.75000000  8906.25000000
    510  4843.75000000  9218.75000000
    511  4843.75000000  9531.25000000
    512  4843.75000000  9843.75000000
    513  5156.25000000   156.25000000
    514  5156.25000000   468.75000000
    515  5156.25000000   781.25000000
    516  5156.25000000  1093.75000000
    517  5156.25000000  1406.25000000
    518  5156.25000000  1718.75000000
    519  5156.25000000  2031.25000000
    520  5156.25000000  2343.75000000
    521  5156.25000000  2656.25000000
    522  5156.25000000  2968.75000000
    523  5156.25000000  3281.25000000
    524  5156.25000000  3593.75000000
    525  5156.25000000  3906.25000000
    526  5156.25000000  4218.75000000
    527  5156.25000000  4531.25000000
    528  5156.25000000  4843.75000000
    529  5156.25000000  5156.25000000
    530  5156.25000000  5468.75000000
    531  5156.25000000  5781.25000000
    532  5156.25000000  6093.75000000
    533  5156.25000000  6406.25000000
    534  5156.25000000  6718.75000000
    535  5156.25000000  7031.25000000
    536  5156.25000000  7343.75000000
    537  5156.25000000  7656.25000000
    538  5156.25000000  7968.75000000
    539  5156.25000000  8281.25000000
    540  5156.25000000  8593.75000000
    541  5156.25000000  8906.25000000
    542  5156.25000000  9218.75000000
    543  5156.25000000  9531.25000000
    544  5156.25000000  9843.75000000
    545  5468.75000000   156.25000000
    546  5468.75000000   468.75000000
    547  5468.75000000   781.25000000
    548  5468.75000000  1093.75000000
    549  5468.75000000  1406.25000000
    550  5468.75000000  1718.75000000
    551  5468.75000000  2031.25000000
    552  5468.75000000  2343.75000000
    553  5468.75000000  2656.25000000
    554  5468.75000000  2968.75000000
    555  5468.75000000  3281.25000000
    556  5468.75000000  3593.75000000
    557  5468.75000000  3906.25000000
    558  5468.75000000  4218.75000000
    559  5468.75000000  4531.25000000
    560  5468.75000000  4843.75000000
    561  5468.75000000  5156.25000000
    562  5468.75000000  5468.75000000
    563  5468.75000000  5781.25000000
    564  5468.75000000  6093.75000000
    565  5468.75000000  6406.25000000
    566  5468.75000000  6718.75000000
    567  5468.75000000  7031.25000000
    568  5468.75000000  7343.75000000
    569  5468.75000000  7656.25000000
    570  5468.75000000  7968.75000000
    571  5468.75000000  8281.25000000
    572  5468.75000000  8593.75000000
    573  5468.75000000  8906.25000000
    574  5468.75000000  9218.75000000
    575  5468.75000000  9531.25000000
    576  5468.75000000  9843.75000000
    577  5781.25000000   156.25000000
    578  5781.25000000   468.75000000
    579  5781.25000000   781.25000000
    580  5781.25000000  1093.75000000
    581  5781.25000000  1406.25000000
    582  5781.25000000  1718.75000000
    583  5781.25000000  2031.25000000
    584  5781.25000000  2343.75000000
    585  5781.25000000  2656.25000000
    586  5781.25000000  2968.75000000
    587  5781.25000000  3281.25000000
    588  5781.25000000  3593.75000000
    589  5781.25000000  3906.25000000
    590  5781.25000000  4218.75000000
    591  5781.25000000  4531.25000000
    592  5781.25000000  4843.75000000
    593  5781.25000000  5156.25000000
    594  5781.25000000  5468.75000000
    595  5781.25000000  5781.25000000
    596  5781.25000000  6093.75000000
    597  5781.25000000  6406.25000000
    598  5781.25000000  6718.75000000
    599  5781.25000000  7031.25000000
    600  5781.25000000  7343.75000000
    601  5781.25000000  7656.25000000
    602  5781.25000000  7968.75000000
    603  5781.25000000  8281.25000000
    604  5781.25000000  8593.75000000
    605  5781.25000000  8906.25000000
    606  5781.25000000  9218.75000000
    607  5781.25000000  9531.25000000
    608  5781.25000000  9843.75000000
    609  6093.75000000   156.25000000
    610  6093.75000000   468.75000000
    611  6093.75000000   781.25000000
    612  6093.75000000  1093.75000000
    613  6093.75000000  1406.25000000
    614  6093.75000000  1718.75000000
    615  6093.75000000  2031.25000000
    616  6093.75000000  2343.75000000
    617  6093.75000000  2656.25000000
    618  6093.75000000  2968.75000000
    619  6093.75000000  3281.25000000
    620  6093.75000000  3593.75000000
    621  6093.75000000  3906.25000000
    622  6093.75000000  4218.75000000
    623  6093.75000000  4531.25000000
    624  6093.75000000  4843.75000000
    625  6093.75000000  5156.25000000
    626  6093.75000000  5468.75000000
    627  6093.75000000  5781.25000000
    628  6093.75000000  6093.75000000
    629  6093.75000000  6406.25000000
    630  6093.75000000  6718.75000000
    631  6093.75000000  7031.25000000
    632  6093.75000000  7343.75000000
    633  6093.75000000  7656.25000000
    634  6093.75000000  7968.75000000
    635  6093.75000000  8281.25000000
    636  6093.75000000  8593.75000000
    637  6093.75000000  8906.25000000
    638  6093.75000000  9218.75000000
    639  6093.75000000  9531.25000000
    640  6093.75000000  9843.75000000
    641  6406.25000000   156.25000000
    642  6406.25000000   468.75000000
    643  6406.25000000   781.25000000
    644  6406.25000000  1093.75000000
    645  6406.25000000  1406.25000000
    646  6406.25000000  1718.75000000
    647  6406.25000000  2031.25000000
    648  6406.25000000  2343.75000000
    649  6406.25000000  2656.25000000
    650  6406.25000000  2968.75000000
    651  6406.25000000  3281.25000000
    652  6406.25000000  3593.75000000
    653  6406.25000000  3906.25000000
    654  6406.25000000  4218.75000000
    655  6406.25000000  4531.25000000
    656  6406.25000000  4843.75000000
    657  6406.25000000  5156.25000000
    658  6406.25000000  5468.75000000
    659  6406.25000000  5781.25000000
    660  6406.25000000  6093.75000000
    661  6406.25000000  6406.25000000
    662  6406.25000000  6718.75000000
    663  6406.25000000  7031.25000000
    664  6406.25000000  7343.75000000
    665  6406.25000000  7656.25000000
    666  6406.25000000  7968.75000000
    667  6406.25000000  8281.25000000
    668  6406.25000000  8593.75000000
    669  6406.25000000  8906.25000000
    670  6406.25000000  9218.75000000
    671  6406.25000000  9531.25000000
    672  6406.25000000  9843.75000000
    673  6718.75000000   156.25000000
    674  6718.75000000   468.75000000
    675  6718.75000000   781.25000000
    676  6718.75000000  1093.75000000
    677  6718.75000000  1406.25000000
    678  6718.75000000  1718.75000000
    679  6718.75000000  2031.25000000
    680  6718.75000000  2343.75000000
    681  6718.75000000  2656.25000000
    682  6718.75000000  2968.75000000
    683  6718.75000000  3281.25000000
    684  6718.75000000  3593.75000000
    685  6718.75000000  3906.25000000
    686  6718.75000000  4218.75000000
    687  6718.75000000  4531.25000000
    688  6718.75000000  4843.75000000
    689  6718.75000000  5156.25000000
    690  6718.75000000  5468.75000000
    691  6718.75000000  5781.25000000
    692  6718.75000000  6093.75000000
    693  6718.75000000  6406.25000000
    694  6718.75000000  6718.75000000
    695  6718.75000000  7031.25000000
    696  6718.75000000  7343.75000000
    697  6718.75000000  7656.25000000
    698  6718.75000000  7968.75000000
    699  6718.75000000  8281.25000000
    700  6718.75000000  8593.75000000
    701  6718.75000000  8906.25000000
    702  6718.75000000  9218.75000000
    703  6718.75000000  9531.25000000
    704  6718.75000000  9843.75000000
    705  7031.25000000   156.25000000
    706  7031.25000000   468.75000000
    707  7031.25000000   781.25000000
    708  7031.25000000  1093.75000000
    709  7031.25000000  1406.25000000
    710  7031.25000000  1718.75000000
    711  7031.25000000  2031.25000000
    712  7031.25000000  2343.75000000
    713  7031.25000000  2656.25000000
    714  7031.25000000  2968.75000000
    715  7031.25000000  3281.25000000
    716  7031.25000000  3593.75000000
    717  7031.25000000  3906.25000000
    718  7031.25000000  4218.75000000
    719  7031.25000000  4531.25000000
    720  7031.25000000  4843.75000000
    721  7031.25000000  5156.25000000
    722  7031.25000000  5468.75000000
    723  7031.25000000  5781.25000000
    724  7031.25000000  6093.75000000
    725  7031.25000000  6406.25000000
    726  7031.25000000  6718.75000000
    727  7031.25000000  7031.25000000
    728  7031.25000000  7343.75000000
    729  7031.25000000  7656.25000000
    730  7031.25000000  7968.75000000
    731  7031.25000000  8281.25000000
    732  7031.25000000  8593.75000000
    733  7031.25000000  8906.25000000
    734  7031.25000000  9218.75000000
    735  7031.25000000  9531.25000000
    736  7031.25000000  9843.75000000
    737  7343.75000000   156.25000000
    738  7343.75000000   468.75000000
    739  7343.75000000   781.25000000
    740  7343.75000000  1093.75000000
    741  7343.75000000  1406.25000000
    742  7343.75000000  1718.75000000
    743  7343.75000000  2031.25000000
    744  7343.75000000  2343.75000000
    745  7343.75000000  2656.25000000
    746  7343.75000000  2968.75000000
    747  7343.75000000  3281.25000000
    748  7343.75000000  3593.75000000
    749  7343.75000000  3906.25000000
    750  7343.75000000  4218.75000000
    751  7343.75000000  4531.25000000
    752  7343.75000000  4843.75000000
    753  7343.75000000  5156.25000000
    754  7343.75000000  5468.75000000
    755  7343.75000000  5781.25000000
    756  7343.75000000  6093.75000000
    757  7343.75000000  6406.25000000
    758  7343.75000000  6718.75000000
    759  7343.75000000  7031.25000000
    760  7343.75000000  7343.75000000
    761  7343.75000000  7656.25000000
    762  7343.75000000  7968.75000000
    763  7343.75000000  8281.25000000
    764  7343.75000000  8593.75000000
    765  7343.75000000  8906.25000000
    766  7343.75000000  9218.75000000
    767  7343.75000000  9531.25000000
    768  7343.75000000  9843.75000000
    769  7656.25000000   156.25000000
    770  7656.25000000   468.75000000
    771  7656.25000000   781.25000000
    772  7656.25000000  1093.75000000
    773  7656.25000000  1406.25000000
    774  7656.25000000  1718.75000000
    775  7656.25000000  2031.25000000
    776  7656.25000000  2343.75000000
    777  7656.25000000  2656.25000000
    778  7656.25000000  2968.75000000
    779  7656.25000000  3281.25000000
    780  7656.25000000  3593.75000000
    781  7656.25000000  3906.25000000
    782  7656.25000000  4218.75000000
    783  7656.25000000  4531.25000000
    784  7656.25000000  4843.75000000
    785  7656.25000000  5156.25000000
    786  7656.25000000  5468.75000000
    787  7656.25000000  5781.25000000
    788  7656.25000000  6093.75000000
    789  7656.25000000  6406.25000000
    790  7656.25000000  6718.75000000
    791  7656.25000000  7031.25000000
    792  7656.25000000  7343.75000000
    793  7656.25000000  7656.25000000
    794  7656.25000000  7968.75000000
    795  7656.25000000  8281.25000000
    796  7656.25000000  8593.75000000
    797  7656.25000000  8906.25000000
    798  7656.25000000  9218.75000000
    799  7656.25000000  9531.25000000
    800  7656.25000000  9843.75000000
    801  7968.75000000   156.25000000
    802  7968.75000000   468.75000000
    803  7968.75000000   781.25000000
    804  7968.75000000  1093.75000000
    805  7968.75000000  1406.25000000
    806  7968.75000000  1718.75000000
    807  7968.75000000  2031.25000000
    808  7968.75000000  2343.75000000
    809  7968.75000000  2656.25000000
    810  7968.75000000  2968.75000000
    811  7968.75000000  3281.25000000
    812  7968.75000000  3593.75000000
    813  7968.75000000  3906.25000000
    814  7968.75000000  4218.75000000
    815  7968.75000000  4531.25000000
    816  7968.75000000  4843.75000000
    817  7968.75000000  5156.25000000
    818  7968.75000000  5468.75000000
    819  7968.75000000  5781.25000000
    820  7968.75000000  6093.75000000
    821  7968.75000000  6406.25000000
    822  7968.75000000  6718.75000000
    823  7968.75000000  7031.25000000
    824  7968.75000000  7343.75000000
    825  7968.75000000  7656.25000000
    826  7968.75000000  7968.75000000
    827  7968.75000000  8281.25000000
    828  7968.75000000  8593.75000000
    829  7968.75000000  8906.25000000
    830  7968.75000000  9218.75000000
    831  7968.75000000  9531.25000000
    832  7968.75000000  9843.75000000
    833  8281.25000000   156.25000000
    834  8281.25000000   468.75000000
    835  8281.25000000   781.25000000
    836  8281.25000000  1093.75000000
    837  8281.25000000  1406.25000000
    838  8281.25000000  1718.75000000
    839  8281.25000000  2031.25000000
    840  8281.25000000  2343.75000000
    841  8281.25000000  2656.25000000
    842  8281.25000000  2968.75000000
    843  8281.25000000  3281.25000000
    844  8281.25000000  3593.75000000
    845  8281.25000000  3906.25000000
    846  8281.25000000  4218.75000000
    847  8281.25000000  4531.25000000
    848  8281.25000000  4843.75000000
    849  8281.25000000  5156.25000000
    850  8281.25000000  5468.75000000
    851  8281.25000000  5781.25000000
    852  8281.25000000  6093.75000000
    853  8281.25000000  6406.25000000
    854  8281.25000000  6718.75000000
    855  8281.25000000  7031.25000000
    856  8281.25000000  7343.75000000
    857  8281.25000000  7656.25000000
    858  8281.25000000  7968.75000000
    859  8281.25000000  8281.25000000
    860  8281.25000000  8593.75000000
    861  8281.25000000  8906.25000000
    862  8281.25000000  9218.75000000
    863  8281.25000000  9531.25000000
    864  8281.25000000  9843.75000000
    865  8593.75000000   156.25000000
    866  8593.75000000   468.75000000
    867  8593.75000000   781.25000000
    868  8593.75000000  1093.75000000
    869  8593.75000000  1406.25000000
    870  8593.75000000  1718.75000000
    871  8593.75000000  2031.25000000
    872  8593.75000000  2343.75000000
    873  8593.75000000  2656.25000000
    874  8593.75000000  2968.75000000
    875  8593.75000000  3281.25000000
    876  8593.75000000  3593.75000000
    877  8593.75000000  3906.25000000
    878  8593.75000000  4218.75000000
    879  8593.75000000  4531.25000000
    880  8593.75000000  4843.75000000
    881  8593.75000000  5156.25000000
    882  8593.75000000  5468.75000000
    883  8593.75000000  5781.25000000
    884  8593.75000000  6093.75000000
    885  8593.75000000  6406.25000000
    886  8593.75000000  6718.75000000
    887  8593.75000000  7031.25000000
    888  8593.75000000  7343.75000000
    889  8593.75000000  7656.25000000
    890  8593.75000000  7968.75000000
    891  8593.75000000  8281.25000000
    892  8593.75000000  8593.75000000
    893  8593.75000000  8906.25000000
    894  8593.75000000  9218.75000000
    895  8593.75000000  9531.25000000
    896  8593.75000000  9843.75000000
    897  8906.25000000   156.25000000
    898  8906.25000000   468.75000000
    899  8906.25000000   781.25000000
    900  8906.25000000  1093.75000000
    901  8906.25000000  1406.25000000
    902  8906.25000000  1718.75000000
    903  8906.25000000  2031.25000000
    904  8906.25000000  2343.75000000
    905  8906.25000000  2656.25000000
    906  8906.25000000  2968.75000000
    907  8906.25000000  3281.25000000
    908  8906.25000000  3593.75000000
    909  8906.25000000  3906.25000000
    910  8906.25000000  4218.75000000
    911  8906.25000000  4531.25000000
    912  8906.25000000  4843.75000000
    913  8906.25000000  5156.25000000
    914  8906.25000000  5468.75000000
    915  8906.25000000  5781.25000000
    916  8906.25000000  6093.75000000
    917  8906.25000000  6406.25000000
    918  8906.25000000  6718.75000000
    919  8906.25000000  7031.25000000
    920  8906.25000000  7343.75000000
    921  8906.25000000  7656.25000000
    922  8906.25000000  7968.75000000
    923  8906.25000000  8281.25000000
    924  8906.25000000  8593.75000000
    925  8906.25000000  8906.25000000
    926  8906.25000000  9218.75000000
    927  8906.25000000  9531.25000000
    928  8906.25000000  9843.75000000
    929  9218.75000000   156.25000000
    930  9218.75000000   468.75000000
    931  9218.75000000   781.25000000
    932  9218.75000000  1093.75000000
    933  9218.75000000  1406.25000000
    934  9218.75000000  1718.75000000
    935  9218.75000000  2031.25000000
    936  9218.75000000  2343.75000000
    937  9218.75000000  2656.25000000
    938  9218.75000000  2968.75000000
    939  9218.75000000  3281.25000000
    940  9218.75000000  3593.75000000
    941  9218.75000000  3906.25000000
    942  9218.75000000  4218.75000000
    943  9218.75000000  4531.25000000
    944  9218.75000000  4843.75000000
    945  9218.75000000  5156.25000000
    946  9218.75000000  5468.75000000
    947  9218.75000000  5781.25000000
    948  9218.75000000  6093.75000000
    949  9218.75000000  6406.25000000
    950  9218.75000000  6718.75000000
    951  9218.75000000  7031.25000000
    952  9218.75000000  7343.75000000
    953  9218.75000000  7656.25000000
    954  9218.75000000  7968.75000000
    955  9218.75000000  8281.25000000
    956  9218.75000000  8593.75000000
    957  9218.75000000  8906.25000000
    958  9218.75000000  9218.75000000
    959  9218.75000000  9531.25000000
    960  9218.75000000  9843.75000000
    961  9531.25000000   156.25000000
    962  9531.25000000   468.75000000
    963  9531.25000000   781.25000000
    964  9531.25000000  1093.75000000
    965  9531.25000000  1406.25000000
    966  9531.25000000  1718.75000000
    967  9531.25000000  2031.25000000
    968  9531.25000000  2343.75000000
    969  9531.25000000  2656.25000000
    970  9531.25000000  2968.75000000
    971  9531.25000000  3281.25000000
    972  9531.25000000  3593.75000000
    973  9531.25000000  3906.25000000
    974  9531.25000000  4218.75000000
    975  9531.25000000  4531.25000000
    976  9531.25000000  4843.75000000
    977  9531.25000000  5156.25000000
    978  9531.25000000  5468.75000000
    979  9531.25000000  5781.25000000
    980  9531.25000000  6093.75000000
    981  9531.25000000  6406.25000000
    982  9531.25000000  6718.75000000
    983  9531.25000000  7031.25000000
    984  9531.25000000  7343.75000000
    985  9531.25000000  7656.25000000
    986  9531.25000000  7968.75000000
    987  9531.25000000  8281.25000000
    988  9531.25000000  8593.75000000
    989  9531.25000000  8906.25000000
    990  9531.25000000  9218.75000000
    991  9531.25000000  9531.25000000
    992  9531.25000000  9843.75000000
    993  9843.75000000   156.25000000
    994  9843.75000000   468.75000000
    995  9843.75000000   781.25000000
    996  9843.75000000  1093.75000000
    997  9843.75000000  1406.25000000
    998  9843.75000000  1718.75000000
    999  9843.75000000  2031.25000000
   1000  9843.75000000  2343.75000000
   1001  9843.75000000  2656.25000000
   1002  9843.75000000  2968.75000000
   1003  9843.75000000  3281.25000000
   1004  9843.75000000  3593.75000000
   1005  9843.75000000  3906.25000000
   1006  9843.75000000  4218.75000000
   1007  9843.75000000  4531.25000000
   1008  9843.75000000  4843.75000000
   1009  9843.75000000  5156.25000000
   1010  9843.75000000  5468.75000000
   1011  9843.75000000  5781.25000000
   1012  9843.75000000  6093.75000000
   1013  9843.75000000  6406.25000000
   1014  9843.75000000  6718.75000000
   1015  9843.75000000  7031.25000000
   1016  9843.75000000  7343.75000000
   1017  9843.75000000  7656.25000000
   1018  9843.75000000  7968.75000000
   1019  9843.75000000  8281.25000000
   1020  9843.75000000  8593.75000000
   1021  9843.75000000  8906.25000000
   1022  9843.75000000  9218.75000000
   1023  9843.75000000  9531.25000000
   1024  9843.75000000  9843.75000000
EOF
